c 3 __LINUXTHREADS_OLD__
c 8 __UCLIBC_HAS_IPV6__
c 1 __UCLIBC_HAS_THREADS_NATIVE__
c 4 __UCLIBC_HAS_IPV4__
c 2 __UCLIBC_HAS_XLOCALE__
c 6 __UCLIBC_HAS_LOCALE__
c 7 __LINUXTHREADS_NEW__
c 5 __UCLIBC_HAS_THREADS__
p cnf 8 4
-4 1 3 -2 -5 6 7 1
-2 6 5 -4 1
-2 6 5 -8 1
-8 1 3 -2 -5 6 7 1
